* ENCODING=ISO-8859-1
NAME          ../EQLPSolver/HiGHS-1-2-1/smallTests/codbt021.mps
ROWS
 N  OBJ     
 G  R0      
 G  R1      
 G  R2      
 G  R3      
 G  R4      
 G  R5      
 G  R6      
 G  R7      
 G  R8      
 G  c10     
 G  c11     
 G  c12     
 G  c13     
 G  c14     
 G  c15     
 G  c16     
COLUMNS
    x0        OBJ                             1
    x0        R0                              1
    x0        R1                              1
    x0        R2                              1
    x0        R3                              1
    x0        R6                              1
    x0        c10                             4
    x0        c11                             2
    x0        c12                             3
    x0        c13                             5
    x0        c14                             2
    x0        c15                             4
    x0        c16                             2
    x1        OBJ                             1
    x1        R0                              1
    x1        R1                              1
    x1        R2                              1
    x1        R4                              1
    x1        R7                              1
    x1        c10                             4
    x1        c11                             3
    x1        c12                             4
    x1        c13                             4
    x1        c14                             1
    x1        c15                             3
    x1        c16                             1
    x2        OBJ                             1
    x2        R0                              1
    x2        R1                              1
    x2        R2                              1
    x2        R5                              1
    x2        R8                              1
    x2        c10                             4
    x2        c11                             3
    x2        c12                             4
    x2        c13                             4
    x2        c14                             1
    x2        c15                             3
    x2        c16                             1
    x3        OBJ                             1
    x3        R0                              1
    x3        R3                              1
    x3        R4                              1
    x3        R5                              1
    x3        R6                              1
    x3        c10                             4
    x3        c11                             3
    x3        c12                             4
    x3        c13                             5
    x3        c14                             2
    x3        c15                             4
    x3        c16                             2
    x4        OBJ                             1
    x4        R1                              1
    x4        R3                              1
    x4        R4                              1
    x4        R5                              1
    x4        R7                              1
    x4        c10                             4
    x4        c11                             3
    x4        c12                             4
    x4        c13                             4
    x4        c14                             1
    x4        c15                             3
    x4        c16                             1
    x5        OBJ                             1
    x5        R2                              1
    x5        R3                              1
    x5        R4                              1
    x5        R5                              1
    x5        R8                              1
    x5        c10                             4
    x5        c11                             3
    x5        c12                             4
    x5        c13                             4
    x5        c14                             1
    x5        c15                             3
    x5        c16                             1
    x6        OBJ                             1
    x6        R0                              1
    x6        R3                              1
    x6        R6                              1
    x6        R7                              1
    x6        R8                              1
    x6        c10                             4
    x6        c11                             3
    x6        c12                             4
    x6        c13                             5
    x6        c14                             2
    x6        c15                             4
    x6        c16                             2
    x7        OBJ                             1
    x7        R1                              1
    x7        R4                              1
    x7        R6                              1
    x7        R7                              1
    x7        R8                              1
    x7        c10                             4
    x7        c11                             3
    x7        c12                             4
    x7        c13                             4
    x7        c14                             1
    x7        c15                             3
    x7        c16                             1
    x8        OBJ                             1
    x8        R2                              1
    x8        R5                              1
    x8        R6                              1
    x8        R7                              1
    x8        R8                              1
    x8        c10                             4
    x8        c11                             3
    x8        c12                             4
    x8        c13                             4
    x8        c14                             1
    x8        c15                             3
    x8        c16                             1
RHS
    rhs       R0                              1
    rhs       R1                              1
    rhs       R2                              1
    rhs       R3                              1
    rhs       R4                              1
    rhs       R5                              1
    rhs       R6                              1
    rhs       R7                              1
    rhs       R8                              1
    rhs       c10                             8
    rhs       c11                             6
    rhs       c12                             8
    rhs       c13                             9
    rhs       c14                             3
    rhs       c15                             7
    rhs       c16                             3
BOUNDS
 UP bnd       x0                              1
 UP bnd       x1                              1
 UP bnd       x2                              1
 UP bnd       x3                              1
 UP bnd       x4                              1
 UP bnd       x5                              1
 UP bnd       x6                              1
 UP bnd       x7                              1
 UP bnd       x8                              1
ENDATA
